
Gurobi 11.0.3 (linux64) logging started Fri Mar  6 21:42:44 2026

Set parameter LogFile to value "binary/results/rice_2026-03-06_21-42-44/split_1/full_mip/LogFile/log_file_full_mip_0.txt"
Gurobi Optimizer version 11.0.3 build v11.0.3rc0 (linux64 - "CentOS Linux 7 (Core)")

CPU model: Intel(R) Xeon(R) Platinum 8260 CPU @ 2.40GHz, instruction set [SSE2|AVX|AVX2|AVX512]
Thread count: 96 physical cores, 192 logical processors, using up to 4 threads

Optimize a model with 5733 rows, 5731 columns and 57181 nonzeros
Model fingerprint: 0xfe03c1cf
Variable types: 17 continuous, 5714 integer (5714 binary)
Coefficient statistics:
  Matrix range     [6e-05, 1e+04]
  Objective range  [4e-04, 1e+04]
  Bounds range     [1e+00, 5e+02]
  RHS range        [1e+00, 1e+03]

User MIP start produced solution with objective -384799 (0.02s)
User MIP start produced solution with objective -384799 (0.02s)
Loaded user MIP start with objective -384799

Presolve removed 3 rows and 1 columns
Presolve time: 0.05s
Presolved: 5730 rows, 5730 columns, 54319 nonzeros
Variable types: 15 continuous, 5715 integer (5714 binary)
Found heuristic solution: objective -384799.1383

Root relaxation: objective 9.997838e-01, 1632 iterations, 0.20 seconds (0.45 work units)

    Nodes    |    Current Node    |     Objective Bounds      |     Work
 Expl Unexpl |  Obj  Depth IntInf | Incumbent    BestBd   Gap | It/Node Time

     0     0    0.99978    0  527 -384799.14    0.99978   100%     -    0s
H    0     0                    -376399.0847    0.99978   100%     -    0s
H    0     0                    -366799.0847    0.99978   100%     -    0s
H    0     0                    -81999.08855    0.99978   100%     -    0s
     0     0    0.99977    0  534 -81999.089    0.99977   100%     -    1s
H    0     0                    -72399.08855    0.99977   100%     -    1s
H    0     0                    -59199.08855    0.99977   100%     -    2s
     0     0    0.99969    0  536 -59199.089    0.99969   100%     -    2s
     0     0    0.99908    0  538 -59199.089    0.99908   100%     -    2s
H    0     0                    -49599.08855    0.99908   100%     -    2s
     0     0    0.99908    0  530 -49599.089    0.99908   100%     -    2s
     0     0    0.99903    0  577 -49599.089    0.99903   100%     -    3s
H    0     0                    -39999.08855    0.99903   100%     -    3s
H    0     0                    -32799.22016    0.99903   100%     -    3s
     0     0    0.99894    0  574 -32799.220    0.99894   100%     -    3s
     0     0          -    0      -32799.220    0.99894   100%     -    3s

Cutting planes:
  Gomory: 8
  MIR: 45
  StrongCG: 11
  RLT: 24
  Relax-and-lift: 19

Cleanup yields a better solution

Explored 1 nodes (5756 simplex iterations) in 3.64 seconds (4.32 work units)
Thread count was 4 (of 192 available processors)

Solution count 10: -23599.2 -32799.2 -39999.1 ... -384799

Solve interrupted
Best objective -2.359922016081e+04, best bound 9.989437900837e-01, gap 100.0042%

User-callback calls 1838, time in user-callback 0.00 sec
